(declare-const a Real)
(declare-const b Real)
(declare-const c Real)
(assert (= (+ a b c) 3))
(assert (> a 0))
(assert (> b 0))
(assert (> c 0))
(assert (not (<= (+ -8 (* (pow (+ (pow (+ (pow a 2) (pow b 2) (* 2 (pow c 2)) (* 2 a b)) -1) (pow (+ (pow a 2) (pow c 2) (* 2 (pow b 2)) (* 2 a c)) -1) (* 4 (pow (+ b c) 2) (pow (+ (* 2 (pow b 2)) (* 2 (pow c 2)) (* 4 (pow a 2)) (* 4 b c)) -1))) -1) (pow (+ (* (pow (+ (pow a 2) (pow b 2) (* 2 (pow c 2)) (* 2 a b)) -1) (+ a b (* 2 c))) (* (pow (+ (pow a 2) (pow c 2) (* 2 (pow b 2)) (* 2 a c)) -1) (+ a c (* 2 b))) (* 4 (pow (+ b c) 2) (pow (+ (* 2 (pow b 2)) (* 2 (pow c 2)) (* 4 (pow a 2)) (* 4 b c)) -1))) 2)) (* 16 (pow a 2) (pow (+ (* 2 (pow b 2)) (* 2 (pow c 2)) (* 4 (pow a 2)) (* 4 b c)) -1))) 0)))
(check-sat)
(get-model)
(exit)